TeamSkills = 1..10;

NUM_PEOPLE = 10;
people = [
  {1, 2, 6},
  {1, 5, 7, 8, 10},
  {3, 4, 5},
  {5, 9, 10},
  {3, 6, 10},
  {4, 6, 9},
  {2, 5, 7, 10},
  {4, 6, 9},
  {2},
  {1, 3, 8}
];

costs = [3, 7, 2, 4, 3, 6, 4, 2, 1, 2];
